1000 1 30 1001 1001 1001 1001 1001 1001 1001 1001 1001 1001 1001 1001 1001 1001 1001 1001 1001 1001 1001 1001 1001 1001 1001 1001 1001 1001 1001 1001 1001 1001 1001 1001 1001 1001 1001 1001 1001 1001 1001 1001 1001 1001 1001 1001 1001 1001 1001 1001 1001 1001 1001 1001 1001 1001 1001 1001 1001 1001 1001 1001 -12 172 545 712 8 720 999 555 936 641 453 188 265 814 917 663 91 869 773 274 926 984 284 831 965 247 688 1 808 287 803 283 -77 1000 749 455 499 164 201 909 70 678 918 124 876 685 465 451 894 701 416 700 910 11 244 259 715 706 381 443 849 404 319 759 490 302 -97 333 473 804 829 911 613 540 891 397 535 945 997 220 401 142 567 872 194 648 781 973 668 755 202 728 35 884 882 671 865 959 -98 119 280 921 387 767 318 674 602 271 690 19 249 560 579 533 748 709 633 336 2 153 527 36 68 615 503 830 324 215 637 478 -170 296 111 590 867 513 890 236 559 542 900 292 428 680 126 878 282 61 519 348 146 584 312 80 99 310 115 118 31 335 731 577 157 -241 718 905 391 647 937 255 758 811 398 915 57 429 234 162 340 71 24 750 754 741 358 198 51 868 412 517 734 317 248 841 947 152 698 644 82 -308 859 189 587 14 862 881 474 604 285 987 27 694 538 196 923 373 191 742 548 795 880 290 866 90 425 612 344 571 101 25 642 399 925 949 -309 210 406 575 203 415 437 219 438 58 843 838 343 204 488 924 547 837 771 562 578 268 788 380 266 920 761 140 216 327 240 752 732 -346 50 565 180 41 37 656 214 116 806 716 839 961 552 3 705 243 55 860 595 544 161 828 440 272 564 100 618 378 812 470 906 367 256 -382 108 442 903 504 277 943 337 777 944 551 855 850 563 666 994 627 424 316 228 557 306 289 122 696 60 476 740 102 532 466 930 817 842 150 -383 252 183 554 421 405 94 983 586 431 597 104 393 166 599 875 176 638 59 631 955 135 897 893 74 683 636 231 691 334 629 21 315 -389 423 745 654 213 729 64 662 267 946 543 756 723 570 487 717 136 813 321 69 980 581 173 616 75 646 402 349 276 163 934 819 793 384 645 -408 88 922 932 143 531 738 224 861 63 846 896 898 44 427 254 546 295 365 435 211 534 323 351 395 704 779 617 454 899 -445 942 733 356 823 967 417 739 639 798 743 901 660 430 325 573 591 603 174 724 368 778 56 330 482 634 84 128 328 529 844 902 975 675 486 976 686 -460 419 730 364 991 820 117 500 479 178 874 242 434 735 463 133 840 549 361 175 301 558 456 489 120 366 887 43 672 208 353 264 -472 420 610 291 539 684 970 376 635 601 524 971 623 103 481 886 525 736 848 505 270 40 593 168 506 528 329 968 461 414 708 452 447 -495 34 49 155 134 471 468 772 908 818 824 171 485 791 583 396 144 986 725 65 832 192 30 766 372 410 954 179 439 48 66 796 81 139 -550 449 422 963 313 281 914 605 17 121 480 484 992 275 985 721 677 29 658 493 273 768 787 158 151 407 620 643 933 553 18 -561 62 229 459 786 257 462 76 426 307 251 895 167 763 199 129 33 802 502 695 467 360 87 418 464 747 657 377 112 458 977 508 609 719 873 -589 835 509 394 130 580 230 359 722 303 446 106 269 385 159 362 195 400 26 854 682 347 536 169 939 53 246 185 916 649 221 702 89 -650 457 935 518 107 576 598 165 863 727 223 294 607 510 693 205 331 655 496 52 952 515 864 912 297 621 770 477 370 409 -651 342 73 350 827 352 67 78 96 746 652 491 187 960 390 184 494 907 403 374 20 521 764 245 775 958 47 807 962 182 15 600 149 676 -659 801 822 877 760 137 181 608 10 892 753 217 707 664 762 288 703 972 232 83 125 799 263 226 145 235 956 207 160 45 225 -673 379 197 776 640 38 258 95 572 951 278 253 206 250 857 809 856 209 941 444 127 371 888 574 711 904 780 765 299 386 177 222 433 388 -689 566 889 86 339 132 475 825 413 669 512 697 501 262 148 541 800 436 54 879 79 537 523 357 679 16 311 93 260 507 805 105 -713 665 582 913 141 314 526 441 511 28 783 964 836 974 769 23 794 940 596 797 628 919 114 751 432 237 300 816 261 341 948 585 239 332 -757 957 345 530 450 988 516 953 233 5 885 147 853 726 989 789 72 815 369 32 681 785 774 990 392 131 661 592 883 355 190 871 699 13 588 -792 993 110 298 670 322 520 569 320 995 375 469 286 982 870 4 411 852 556 514 85 594 498 123 966 624 714 497 931 492 46 611 667 293 -826 279 929 338 858 625 9 981 810 238 448 630 218 305 227 744 927 42 782 614 851 969 653 998 200 847 326 692 834 354 687 979 845 -833 138 363 821 622 606 7 212 109 483 978 156 619 92 790 193 632 996 938 186 928 737 22 950 568 39 710 304 154 6 113 784 522 626 0 
30.000000 -0.475488 3372.589792 3373.065280 -0.539594 3726.983051 3727.522645 -0.129474 3224.623174 3224.752648 -0.071068 3207.083374 3207.154441 -0.834630 3481.529289 3482.363918 -0.954540 3886.419790 3887.374330 -0.508883 3673.093359 3673.602242 -0.096118 3495.598133 3495.694251 -0.992958 3608.130020 3609.122978 -0.316955 3667.228885 3667.545840 -0.647901 3489.205517 3489.853419 -0.619496 3652.848412 3653.467908 -0.384632 3285.877130 3286.261762 -0.060551 3643.094792 3643.155342 -0.038274 3579.827032 3579.865307 -0.677332 3381.460249 3382.137581 -0.139490 3751.397970 3751.537460 -0.234483 3429.137703 3429.372186 -0.816749 3807.552574 3808.369322 -0.817739 3515.314763 3516.132502 -0.409475 3420.213081 3420.622556 -0.815273 3452.987919 3453.803192 -0.875911 3551.137034 3552.012945 -0.812412 3719.007099 3719.819511 -0.002994 3507.736461 3507.739455 -0.734515 3502.695801 3503.430316 -0.200821 3851.927704 3852.128525 -0.275528 3644.274654 3644.550182 -0.751281 3585.897702 3586.648983 -0.496835 3764.410668 3764.907504 1000.000000 0.000000 0.000000 0.000000 0.000000 0.000000 0.000000 0.000000 0.000000 0.000000 0.000000 0.000000 0.000000 0.000000 0.000000 0.000000 0.000000 0.000000 0.000000 0.000000 0.000000 0.000000 0.000000 0.000000 0.000000 0.000000 0.000000 0.000000 0.000000 0.000000 0.000000 0.000000 0.000000 0.000000 0.000000 0.000000 0.000000 0.000000 0.000000 0.000000 0.000000 0.000000 0.000000 0.000000 0.000000 0.000000 0.000000 0.000000 0.000000 0.000000 0.000000 0.000000 0.000000 0.000000 0.000000 0.000000 0.000000 0.000000 0.000000 0.000000 0.000000 0.000000 0.000000 0.000000 0.000000 0.000000 0.000000 0.000000 0.000000 0.000000 0.000000 0.000000 0.000000 0.000000 0.000000 0.000000 0.000000 0.000000 0.000000 0.000000 0.000000 0.000000 0.000000 0.000000 0.000000 0.000000 0.000000 0.000000 0.000000 0.000000 0.000000 0.000000 0.000000 0.000000 0.000000 0.000000 0.000000 0.000000 0.000000 0.000000 0.000000 0.000000 0.000000 0.000000 0.000000 0.000000 0.000000 0.000000 0.000000 0.000000 0.000000 0.000000 0.000000 0.000000 0.000000 0.000000 0.000000 0.000000 0.000000 0.000000 0.000000 0.000000 0.000000 0.000000 0.000000 0.000000 0.000000 0.000000 0.000000 0.000000 0.000000 0.000000 0.000000 0.000000 0.000000 0.000000 0.000000 0.000000 0.000000 0.000000 0.000000 0.000000 0.000000 0.000000 0.000000 0.000000 0.000000 0.000000 0.000000 0.000000 0.000000 0.000000 0.000000 0.000000 0.000000 0.000000 0.000000 0.000000 0.000000 0.000000 0.000000 0.000000 0.000000 0.000000 0.000000 0.000000 0.000000 0.000000 0.000000 0.000000 0.000000 0.000000 0.000000 0.000000 0.000000 0.000000 0.000000 0.000000 0.000000 0.000000 0.000000 0.000000 0.000000 0.000000 0.000000 0.000000 0.000000 0.000000 0.000000 0.000000 0.000000 0.000000 0.000000 0.000000 0.000000 0.000000 0.000000 0.000000 0.000000 0.000000 0.000000 0.000000 0.000000 0.000000 0.000000 0.000000 0.000000 0.000000 0.000000 0.000000 0.000000 0.000000 0.000000 0.000000 0.000000 0.000000 0.000000 0.000000 0.000000 0.000000 0.000000 0.000000 0.000000 0.000000 0.000000 0.000000 0.000000 0.000000 0.000000 0.000000 0.000000 0.000000 0.000000 0.000000 0.000000 0.000000 0.000000 0.000000 0.000000 0.000000 0.000000 0.000000 0.000000 0.000000 0.000000 0.000000 0.000000 0.000000 0.000000 0.000000 0.000000 0.000000 0.000000 0.000000 0.000000 0.000000 0.000000 0.000000 0.000000 0.000000 0.000000 0.000000 0.000000 0.000000 0.000000 0.000000 0.000000 0.000000 0.000000 0.000000 0.000000 0.000000 0.000000 0.000000 0.000000 0.000000 0.000000 0.000000 0.000000 0.000000 0.000000 0.000000 0.000000 0.000000 0.000000 0.000000 0.000000 0.000000 0.000000 0.000000 0.000000 0.000000 0.000000 0.000000 0.000000 0.000000 0.000000 0.000000 0.000000 0.000000 0.000000 0.000000 0.000000 0.000000 0.000000 0.000000 0.000000 0.000000 0.000000 0.000000 0.000000 0.000000 0.000000 0.000000 0.000000 0.000000 0.000000 0.000000 0.000000 0.000000 0.000000 0.000000 0.000000 0.000000 0.000000 0.000000 0.000000 0.000000 0.000000 0.000000 0.000000 0.000000 0.000000 0.000000 0.000000 0.000000 0.000000 0.000000 0.000000 0.000000 0.000000 0.000000 0.000000 0.000000 0.000000 0.000000 0.000000 0.000000 0.000000 0.000000 0.000000 0.000000 0.000000 0.000000 0.000000 0.000000 0.000000 0.000000 0.000000 0.000000 0.000000 0.000000 0.000000 0.000000 0.000000 0.000000 0.000000 0.000000 0.000000 0.000000 0.000000 0.000000 0.000000 0.000000 0.000000 0.000000 0.000000 0.000000 0.000000 0.000000 0.000000 0.000000 0.000000 0.000000 0.000000 0.000000 0.000000 0.000000 0.000000 0.000000 0.000000 0.000000 0.000000 0.000000 0.000000 0.000000 0.000000 0.000000 0.000000 0.000000 0.000000 0.000000 0.000000 0.000000 0.000000 0.000000 0.000000 0.000000 0.000000 0.000000 0.000000 0.000000 0.000000 0.000000 0.000000 0.000000 0.000000 0.000000 0.000000 0.000000 0.000000 0.000000 0.000000 0.000000 0.000000 0.000000 0.000000 0.000000 0.000000 0.000000 0.000000 0.000000 0.000000 0.000000 0.000000 0.000000 0.000000 0.000000 0.000000 0.000000 0.000000 0.000000 0.000000 0.000000 0.000000 0.000000 0.000000 0.000000 0.000000 0.000000 0.000000 0.000000 0.000000 0.000000 0.000000 0.000000 0.000000 0.000000 0.000000 0.000000 0.000000 0.000000 0.000000 0.000000 0.000000 0.000000 0.000000 0.000000 0.000000 0.000000 0.000000 0.000000 0.000000 0.000000 0.000000 0.000000 0.000000 0.000000 0.000000 0.000000 0.000000 0.000000 0.000000 0.000000 0.000000 0.000000 0.000000 0.000000 0.000000 0.000000 0.000000 0.000000 0.000000 0.000000 0.000000 0.000000 0.000000 0.000000 0.000000 0.000000 0.000000 0.000000 0.000000 0.000000 0.000000 0.000000 0.000000 0.000000 0.000000 0.000000 0.000000 0.000000 0.000000 0.000000 0.000000 0.000000 0.000000 0.000000 0.000000 0.000000 0.000000 0.000000 0.000000 0.000000 0.000000 0.000000 0.000000 0.000000 0.000000 0.000000 0.000000 0.000000 0.000000 0.000000 0.000000 0.000000 0.000000 0.000000 0.000000 0.000000 0.000000 0.000000 0.000000 0.000000 0.000000 0.000000 0.000000 0.000000 0.000000 0.000000 0.000000 0.000000 0.000000 0.000000 0.000000 0.000000 0.000000 0.000000 0.000000 0.000000 0.000000 0.000000 0.000000 0.000000 0.000000 0.000000 0.000000 0.000000 0.000000 0.000000 0.000000 0.000000 0.000000 0.000000 0.000000 0.000000 0.000000 0.000000 0.000000 0.000000 0.000000 0.000000 0.000000 0.000000 0.000000 0.000000 0.000000 0.000000 0.000000 0.000000 0.000000 0.000000 0.000000 0.000000 0.000000 0.000000 0.000000 0.000000 0.000000 0.000000 0.000000 0.000000 0.000000 0.000000 0.000000 0.000000 0.000000 0.000000 0.000000 0.000000 0.000000 0.000000 0.000000 0.000000 0.000000 0.000000 0.000000 0.000000 0.000000 0.000000 0.000000 0.000000 0.000000 0.000000 0.000000 0.000000 0.000000 0.000000 0.000000 0.000000 0.000000 0.000000 0.000000 0.000000 0.000000 0.000000 0.000000 0.000000 0.000000 0.000000 0.000000 0.000000 0.000000 0.000000 0.000000 0.000000 0.000000 0.000000 0.000000 0.000000 0.000000 0.000000 0.000000 0.000000 0.000000 0.000000 0.000000 0.000000 0.000000 0.000000 0.000000 0.000000 0.000000 0.000000 0.000000 0.000000 0.000000 0.000000 0.000000 0.000000 0.000000 0.000000 0.000000 0.000000 0.000000 0.000000 0.000000 0.000000 0.000000 0.000000 0.000000 0.000000 0.000000 0.000000 0.000000 0.000000 0.000000 0.000000 0.000000 0.000000 0.000000 0.000000 0.000000 0.000000 0.000000 0.000000 0.000000 0.000000 0.000000 0.000000 0.000000 0.000000 0.000000 0.000000 0.000000 0.000000 0.000000 0.000000 0.000000 0.000000 0.000000 0.000000 0.000000 0.000000 0.000000 0.000000 0.000000 0.000000 0.000000 0.000000 0.000000 0.000000 0.000000 0.000000 0.000000 0.000000 0.000000 0.000000 0.000000 0.000000 0.000000 0.000000 0.000000 0.000000 0.000000 0.000000 0.000000 0.000000 0.000000 0.000000 0.000000 0.000000 0.000000 0.000000 0.000000 0.000000 0.000000 0.000000 0.000000 0.000000 0.000000 0.000000 0.000000 0.000000 0.000000 0.000000 0.000000 0.000000 0.000000 0.000000 0.000000 0.000000 0.000000 0.000000 0.000000 0.000000 0.000000 0.000000 0.000000 0.000000 0.000000 0.000000 0.000000 0.000000 0.000000 0.000000 0.000000 0.000000 0.000000 0.000000 0.000000 0.000000 0.000000 0.000000 0.000000 0.000000 0.000000 0.000000 0.000000 0.000000 0.000000 0.000000 0.000000 0.000000 0.000000 0.000000 0.000000 0.000000 0.000000 0.000000 0.000000 0.000000 0.000000 0.000000 0.000000 0.000000 0.000000 0.000000 0.000000 0.000000 0.000000 0.000000 0.000000 0.000000 0.000000 0.000000 0.000000 0.000000 0.000000 0.000000 0.000000 0.000000 0.000000 0.000000 0.000000 0.000000 0.000000 0.000000 0.000000 0.000000 0.000000 0.000000 0.000000 0.000000 0.000000 0.000000 0.000000 0.000000 0.000000 0.000000 0.000000 0.000000 0.000000 0.000000 0.000000 0.000000 0.000000 0.000000 0.000000 0.000000 0.000000 0.000000 0.000000 0.000000 0.000000 0.000000 0.000000 0.000000 0.000000 0.000000 0.000000 0.000000 0.000000 0.000000 0.000000 0.000000 0.000000 0.000000 0.000000 0.000000 0.000000 0.000000 0.000000 0.000000 0.000000 0.000000 0.000000 0.000000 0.000000 0.000000 0.000000 0.000000 0.000000 0.000000 0.000000 0.000000 0.000000 0.000000 0.000000 0.000000 0.000000 0.000000 0.000000 0.000000 0.000000 0.000000 0.000000 0.000000 0.000000 0.000000 0.000000 0.000000 0.000000 0.000000 0.000000 0.000000 0.000000 0.000000 0.000000 0.000000 0.000000 0.000000 0.000000 0.000000 0.000000 0.000000 0.000000 0.000000 0.000000 0.000000 0.000000 0.000000 0.000000 0.000000 0.000000 0.000000 0.000000 0.000000 0.000000 0.000000 0.000000 0.000000 0.000000 0.000000 0.000000 0.000000 0.000000 0.000000 0.000000 0.000000 0.000000 0.000000 0.000000 0.000000 0.000000 0.000000 0.000000 0.000000 0.000000 14.772656 0.000000 0.000000 0.000000 0.000000 0.000000 0.000000 0.000000 0.000000 0.000000 0.000000 0.000000 0.000000 0.000000 0.000000 0.000000 0.000000 0.000000 0.000000 0.000000 0.000000 0.000000 0.000000 0.000000 0.000000 0.000000 0.000000 0.000000 0.000000 0.000000 0.000000 0.000000 0.000000 0.000000 0.000000 0.000000 0.000000 0.000000 0.000000 0.000000 0.000000 0.000000 0.000000 0.000000 0.000000 0.000000 0.000000 0.000000 0.000000 0.000000 0.000000 0.000000 




Total_objective=
16879.241872
Best_SOL_TIME=
0.000000
BEST_KNOWN=
1073741824.000
ComputeTime=
-3689348814741910.50
Route_num=
30
Routes_len=
16879.242
Total_travel_time=
16879.24
Total_service_time=
106894.01
Total_early_time=
14.77
Total_late_time=
0.00
